CMD:
./solvers/bin/cadical --plain --no-reduce -t 1600 ./data/cnfs//qspiflash_dualflexpress_divthree-p076/qspiflash_dualflexpress_divthree-p076.50.cnf

c --- [ banner ] -------------------------------------------------------------
c 
c CaDiCaL SAT Solver
c Copyright (c) 2016-2024
c A. Biere, M. Fleury, N. Froleyks, K. Fazekas, F. Pollitt, T. Faller
c JKU Linz, University of Freiburg, TU Wien
c 
c Version 2.1.3 5296d3d2a9bf48c154ab2acb5e44625776d821bf
c g++ (Gentoo 12.3.1_p20230526 p2) 12.3.1 20230526 -Wall -Wextra -O3 -DNDEBUG
c Sat Aug 9 07:26:21 PDT 2025 Linux cedar2.int.cedar.computecanada.ca 5.14.0-362.24.2.el9_3.x86_64 x86_64
c 
c --- [ limit ] --------------------------------------------------------------
c 
c setting time limit to 1600 seconds real time (due to '-t 1600')
c 
c --- [ parsing input ] ------------------------------------------------------
c 
c reading DIMACS file from './data/cnfs//qspiflash_dualflexpress_divthree-p076/qspiflash_dualflexpress_divthree-p076.50.cnf'
c opening file to read './data/cnfs//qspiflash_dualflexpress_divthree-p076/qspiflash_dualflexpress_divthree-p076.50.cnf'
c found 'p cnf 150774 439754' header
c parsed 439754 clauses in 0.06 seconds process time
c 
c --- [ options ] ------------------------------------------------------------
c 
c   --compact=false                (different from default 'true')
c   --decompose=false              (different from default 'true')
c   --deduplicate=false            (different from default 'true')
c   --elim=false                   (different from default 'true')
c   --probe=false                  (different from default 'true')
c   --reduce=false                 (different from default 'true')
c   --subsume=false                (different from default 'true')
c   --ternary=false                (different from default 'true')
c   --transred=false               (different from default 'true')
c   --vivify=false                 (different from default 'true')
c 
c --- [ solving ] ------------------------------------------------------------
c 
c time measured in process time since initialization
c 
c  seconds  reductions  redundant  irredundant
c         MB    restarts       trail       variables
c          level   conflicts       glue          remaining
c 
c *  0.06 70  0 0   0    0    0  0% 0 419622 137545 91%
c {  0.11 72  0 0   0    0    0  0% 0 419622 137545 91%
c i  0.11 72 15 0   0   11    6 10% 1 419622 137544 91%
c i  0.11 72 13 0   0   13    7 10% 1 419622 137371 91%
c i  0.12 72 22 0   0   20   13 14% 2 419622 137359 91%
c i  0.13 72 23 0   0   21   13 15% 2 419622 137349 91%
c i  0.16 72 83 0   0   50   38 20% 33 419622 137291 91%
c i  0.18 72 66 0   5  107   88 20% 20 419622 136890 91%
c i  0.24 73 60 0   9  790  693 27% 8 419622 136887 91%
c }  0.25 73 55 0   9 1001  887 26% 7 419622 136887 91%
c [  0.25 73  0 0   9 1001  887  0% 0 419622 136887 91%
c O  0.28 73 1087 0   9 1002  888 85% 2 419622 136887 91%
c i  0.43 73 1012 0   9 1865 1674 80% 7 419622 136883 91%
c ]  0.62 73 568 0  10 3003 2694 56% 6 419622 136883 91%
c {  0.62 73 55 0  10 3003 2694 26% 7 419622 136883 91%
c F  0.62 73 55 0  10 3004 2695 26% 7 419622 136883 91%
c i  0.68 74 66 0  15 3478 3119 26% 6 419622 136879 91%
c i  0.75 74 57 0  30 3944 3534 24% 6 419622 136829 91%
c i  0.80 74 51 0  35 4432 3953 24% 6 419622 136816 91%
c i  0.80 74 51 0  35 4433 3953 24% 6 419622 136804 91%
c 
c  seconds  reductions  redundant  irredundant
c         MB    restarts       trail       variables
c          level   conflicts       glue          remaining
c 
c #  1.04 74 49 0  88 6007 5321 25% 5 419622 136804 91%
c i  1.05 74 49 0  89 6098 5398 25% 5 419622 136800 91%
c i  1.08 74 49 0 105 6191 5489 24% 5 419622 136786 91%
c i  1.10 74 49 0 108 6407 5680 25% 5 419622 136759 91%
c i  1.10 74 49 0 108 6408 5680 25% 5 419622 136756 91%
c i  1.10 74 49 0 108 6411 5682 25% 5 419622 136746 91%
c i  1.10 74 49 0 108 6414 5682 25% 5 419622 136700 91%
c i  1.10 74 49 0 108 6418 5685 25% 5 419622 136691 91%
c i  1.15 74 49 0 121 6605 5833 25% 5 419622 136687 91%
c }  1.23 74 47 0 146 7004 6180 25% 5 419622 136687 91%
c [  1.23 74 568 0 146 7004 6180 56% 6 419622 136687 91%
c i  1.28 74 505 0 147 7290 6439 53% 7 419622 136683 91%
c i  1.29 74 497 0 147 7335 6480 53% 7 419622 136679 91%
c i  1.34 75 453 0 147 7628 6742 51% 6 419622 136675 91%
c i  1.73 75 329 0 147 8822 7769 43% 8 419622 136671 91%
c i  1.74 75 328 0 147 8838 7781 43% 8 419622 136666 91%
c i  1.74 75 327 0 147 8845 7782 43% 8 419622 136662 91%
c i  1.84 75 306 0 147 9141 8022 41% 8 419622 136658 91%
c i  1.84 75 305 0 147 9150 8029 41% 8 419622 136644 91%
c I  2.10 75 260 0 148 10010 8816 40% 8 419622 136644 91%
c 
c  seconds   reductions    redundant  irredundant
c         MB     restarts         trail       variables
c           level    conflicts        glue          remaining
c 
c i  2.44 75 205 0 150 11512 10125 36% 8 419622 136640 91%
c i  3.04 76 160 0 151 13779 12058 32% 9 419622 136636 91%
c i  3.18 76 153 0 151 14305 12508 31% 9 419622 136578 91%
c i  3.28 76 148 0 151 14640 12805 31% 9 419622 136574 91%
c ]  3.40 76 144 0 151 15006 13122 31% 9 419622 136574 91%
c {  3.40 76 47 0 151 15006 13122 25% 5 419622 136574 91%
c B  3.40 76 47 0 152 15011 13126 25% 5 419622 136574 91%
c i  3.40 76 47 0 152 15011 13126 25% 5 419622 136570 91%
c i  3.45 76 47 0 176 15110 13215 24% 5 419622 136566 91%
c i  3.47 76 47 0 184 15146 13246 24% 5 419622 136519 91%
c i  3.47 76 47 0 184 15148 13247 24% 5 419622 136493 91%
c i  3.47 76 47 0 184 15152 13249 24% 5 419622 136459 91%
c i  3.47 76 47 0 184 15153 13249 24% 5 419622 136458 91%
c i  3.47 76 47 0 184 15158 13252 24% 5 419622 136375 90%
c i  3.48 76 46 0 184 15222 13312 24% 5 419622 136363 90%
c i  3.53 76 46 0 197 15419 13473 24% 5 419622 136350 90%
c i  3.56 76 45 0 197 15562 13593 24% 5 419622 136346 90%
c i  3.58 76 45 0 197 15620 13630 24% 5 419622 135696 90%
c i  3.71 77 43 0 244 16113 14027 24% 5 419622 135692 90%
c i  3.71 77 43 0 244 16123 14029 24% 5 419622 135688 90%
c 
c  seconds  reductions    redundant  irredundant
c         MB    restarts         trail       variables
c          level    conflicts        glue          remaining
c 
c i  3.72 77 43 0 244 16128 14028 24% 5 419622 135648 90%
c i  3.73 77 43 0 253 16168 14066 24% 5 419622 135644 90%
c i  3.78 77 42 0 274 16288 14170 24% 5 419622 135640 90%
c i  3.94 77 41 0 294 16796 14599 24% 5 419622 135639 90%
c i  4.22 77 39 0 365 17458 15144 24% 5 419622 135599 90%
c i  4.31 77 39 0 384 17628 15261 24% 5 419622 135590 90%
c i  4.35 77 38 0 385 17735 15357 24% 5 419622 135586 90%
c i  4.36 77 38 0 388 17766 15371 24% 5 419622 135351 90%
c i  4.62 77 37 0 415 18354 15871 24% 5 419622 135130 90%
c i  4.63 77 37 0 419 18384 15890 24% 5 419622 135126 90%
c i  4.79 77 36 0 441 18786 16212 24% 5 419622 135108 90%
c i  4.82 77 36 0 450 18841 16258 24% 5 419622 135104 90%
c i  4.82 77 36 0 452 18848 16260 24% 5 419622 134795 89%
c i  4.84 77 36 0 463 18908 16297 24% 5 419622 134791 89%
c i  4.86 77 36 0 464 18938 16314 24% 5 419622 134716 89%
c i  4.94 77 35 0 476 19100 16426 24% 5 419622 131679 87%
c }  4.94 77 35 0 476 19102 16426 24% 5 419622 131660 87%
c 0  4.94 77 35 0 476 19102 16426 24% 5 419622 131660 87%
c 
c --- [ result ] -------------------------------------------------------------
c 
s UNSATISFIABLE
c 
c --- [ run-time profiling ] -------------------------------------------------
c 
c process time taken by individual solving procedures
c (percentage relative to process time for solving)
c 
c         4.88  100.00% search
c         2.53   51.96% stable
c         2.30   47.15% unstable
c         0.06    1.31% parse
c         0.04    0.89% lucky
c         0.00    0.00% simplify
c   =================================
c         4.88   98.69% solve
c 
c last line shows process time for solving
c (percentage relative to total process time)
c 
c --- [ statistics ] ---------------------------------------------------------
c 
c chronological:              6890        36.07 %  of conflicts
c conflicts:                 19102      3917.83    per second
c decisions:                 47003      9640.35    per second
c fixed:                     19080        12.65 %  of all variables
c learned:                   18127        94.90 %  per conflict
c learned_lits:             603812       100.00 %  learned literals
c minimized:                     0         0.00 %  learned literals
c shrunken:                 103679        17.17 %  learned literals
c minishrunken:             135282        22.40 %  learned literals
c otfs:                        181         0.95 %  of conflict
c propagations:           57073130        11.71 M  per second
c rephased:                      5      3820.40    interval
c restarts:                    476        40.13    interval
c stabilizing:                   2        52.37 %  of conflicts
c subsumed:                   1640         0.37 %  of all clauses
c strengthened:                179         0.04 %  of all clauses
c 
c seconds are measured in process time for solving
c 
c --- [ resources ] ----------------------------------------------------------
c 
c total process time since initialization:         4.94    seconds
c total real time since initialization:            4.96    seconds
c maximum resident set size of process:           75.86    MB
c 
c --- [ shutting down ] ------------------------------------------------------
c 
c exit 20
